8128
30, 7, 2, 42, 21, 17, 3, 18, 31, 22, 49, 36, 35, 34, 44, 46, 37, 39, 40, 38, 48, 24, 5, 15, 6, 4, 25, 12, 28, 26, 27, 47, 14, 13, 52, 11, 51, 33, 43, 10, 9, 8, 19, 41, 45, 32, 1, 23, 20, 50, 16, 29
